c User generated cnf file
p cnf 12 30
7 4 -2 0 
9 4 -9 0 
11 7 -7 0 
2 2 -6 0 
2 12 -8 0 
2 -10 9 0 
3 -6 3 0 
5 -10 12 0 
12 7 -1 0 
2 3 -4 0 
9 8 -10 0 
4 5 -7 0 
12 -9 5 0 
1 -1 9 0 
3 -12 4 0 
2 2 -7 0 
3 6 -4 0 
9 -3 7 0 
1 7 -11 0 
11 8 -6 0 
2 -6 3 0 
8 -5 1 0 
3 -8 5 0 
9 -9 8 0 
7 -3 1 0 
7 10 -7 0 
10 10 -8 0 
10 -9 10 0 
11 2 -11 0 
3 4 -12 0 
